benchmark/results/graph__10-1000-0.10-02_2/graph__10-1000-0.10-02_2_Quinton_Benders_aux.lp
\ This file has been generated by DOcplex
\ ENCODING=ISO-8859-1
\Problem name: Quinton Benders_auxiliary_sub

Minimize
 obj: 0.001576276390 pi_nr_a0 + 0.003610108303 pi_nr_a1
      + 0.001522070015 pi_nr_a2 + 0.001238402097 pi_nr_a3
      + 0.001008273442 pi_nr_a4 + 0.001494767940 pi_nr_a5
      + 0.000842461316 pi_nr_a6 + 0.000990684597 pi_nr_a7
      + 0.001035196687 pi_nr_a8 + 0.001782531194 pi_nr_a9 + pi_p_a1_a0
      + pi_p_a4_a9 + pi_p_a2_a0 + pi_p_a1_a2 + pi_p_a3_a6 + pi_p_a4_a0
      + 3.570953518905 pi_d_a0_a1_proc_0 + 1.000976562500 pi_d_a1_a0_proc_0
      + 2592 pi_d_a0_a2_proc_1 + 3.571930081405 pi_d_a0_a2_proc_0
      + 2589.428069918595 pi_d_a2_a0_proc_1 + pi_d_a2_a0_proc_0
      + 2588.507171482297 pi_d_a0_a3_proc_1
      + 2585.669965232694 pi_d_a0_a3_proc_0 + 7.330034767306 pi_d_a3_a0_proc_1
      + 4.492828517703 pi_d_a3_a0_proc_0 + 2542.229431054507 pi_d_a0_a4_proc_1
      + 1249.861740659918 pi_d_a0_a4_proc_0
      + 1343.138259340082 pi_d_a4_a0_proc_1 + 50.770568945493 pi_d_a4_a0_proc_0
      + 2581.876602810285 pi_d_a0_a5_proc_1
      + 2585.446938982988 pi_d_a0_a5_proc_0 + 7.553061017011 pi_d_a5_a0_proc_1
      + 11.123397189715 pi_d_a5_a0_proc_0 + 2591.999994119390 pi_d_a0_a6_proc_1
      + 3.574295790865 pi_d_a0_a6_proc_0 + 2589.425704209135 pi_d_a6_a0_proc_1
      + 1.000005880611 pi_d_a6_a0_proc_0 + 1631.681027136644 pi_d_a0_a7_proc_1
      + 1624.811376631487 pi_d_a0_a7_proc_0 + 968.188623368513 pi_d_a7_a0_proc_1
      + 961.318972863356 pi_d_a7_a0_proc_0 + 2588.428069918595 pi_d_a0_a8_proc_1
      + pi_d_a8_a0_proc_1 + 0.013462047672 pi_d_a0_a9_proc_0
      + 4.558468033733 pi_d_a9_a0_proc_0 + pi_d_a1_a2_proc_0
      - 0.000000000000 pi_d_a2_a1_proc_0 + 2586.590863668992 pi_d_a1_a3_proc_0
      - 0.000000000000 pi_d_a3_a1_proc_0 + 0.999875918147 pi_d_a1_a4_proc_0
      + 1296.060503605859 pi_d_a4_a1_proc_0
      + 2592.996452966298 pi_d_a1_a5_proc_0 + 0.001953125000 pi_d_a5_a1_proc_0
      + 1.002371590070 pi_d_a1_a6_proc_0 + 0.000000000000 pi_d_a6_a1_proc_0
      + 1627.559249575493 pi_d_a1_a7_proc_0 + 954.999169837945 pi_d_a7_a1_proc_0
      + pi_d_a1_a9_proc_0 + 0.000000000000 pi_d_a9_a1_proc_0
      + 2592.999999707681 pi_d_a2_a3_proc_1
      + 2586.590863376673 pi_d_a2_a3_proc_0 + 6.409136623327 pi_d_a3_a2_proc_1
      + 0.000000292319 pi_d_a3_a2_proc_0 + 2592 pi_d_a2_a4_proc_1
      + 1296.060379524006 pi_d_a2_a4_proc_0
      + 1296.939620475994 pi_d_a4_a2_proc_1 + 1.000000000000 pi_d_a4_a2_proc_0
      + 2587.046455077740 pi_d_a2_a5_proc_1
      + 2587.044861169038 pi_d_a2_a5_proc_0 + 5.955138830962 pi_d_a5_a2_proc_1
      + 5.953544922260 pi_d_a5_a2_proc_0 + 2593 pi_d_a2_a6_proc_1
      + 1.002371590070 pi_d_a2_a6_proc_0 + 2591.997628409930 pi_d_a6_a2_proc_1
      + 0.000000000000 pi_d_a6_a2_proc_0 - 943.632296518518 pi_d_a2_a7_proc_1
      - 954.073877105080 pi_d_a2_a7_proc_0 + 3547.073877105080 pi_d_a7_a2_proc_1
      + 3536.632296518518 pi_d_a7_a2_proc_0 + 2593 pi_d_a2_a8_proc_1
      + 0.500000000000 pi_d_a2_a9_proc_0 + 0.500000000000 pi_d_a9_a2_proc_0
      + 1295.940238459091 pi_d_a3_a4_proc_1
      + 2585.591481652089 pi_d_a3_a4_proc_0 + 7.408518347911 pi_d_a4_a3_proc_1
      + 1297.059761540909 pi_d_a4_a3_proc_0 + 6.409445995892 pi_d_a3_a5_proc_1
      + 2591.998715756182 pi_d_a3_a5_proc_0 + 1.001284243818 pi_d_a5_a3_proc_1
      + 2586.590554004108 pi_d_a5_a3_proc_0
      + 2592.999535520423 pi_d_a3_a6_proc_1
      + 2586.592770779485 pi_d_a3_a6_proc_0 + 6.407229220515 pi_d_a6_a3_proc_1
      + 0.000464479577 pi_d_a6_a3_proc_0 - 947.852026708676 pi_d_a3_a7_proc_1
      + 1627.297256373753 pi_d_a3_a7_proc_0 + 965.702743626247 pi_d_a7_a3_proc_1
      + 3540.852026708676 pi_d_a7_a3_proc_0 + 7.409136331008 pi_d_a3_a8_proc_1
      + 0.000000000000 pi_d_a8_a3_proc_1 + 2585.840863668992 pi_d_a3_a9_proc_0
      + 0.750000000000 pi_d_a9_a3_proc_0 + 1296.938025245879 pi_d_a4_a5_proc_1
      + 2592.996810861184 pi_d_a4_a5_proc_0 + 0.003189138816 pi_d_a5_a4_proc_1
      + 1296.061974754120 pi_d_a5_a4_proc_0
      + 2592.999024048720 pi_d_a4_a6_proc_1
      + 1297.061775162796 pi_d_a4_a6_proc_0
      + 1295.938224837204 pi_d_a6_a4_proc_1 + 0.000975951280 pi_d_a6_a4_proc_0
      - 942.706330954929 pi_d_a4_a7_proc_1 + 342.912467982515 pi_d_a4_a7_proc_0
      + 2250.087532017485 pi_d_a7_a4_proc_1
      + 3535.706330954929 pi_d_a7_a4_proc_0
      + 1296.939620475992 pi_d_a4_a8_proc_1 + 0.000000000001 pi_d_a8_a4_proc_1
      + 1297.060379524006 pi_d_a4_a9_proc_0 + 0.000000000000 pi_d_a9_a4_proc_0
      + 2592.999222318632 pi_d_a5_a6_proc_1 + 2593 pi_d_a5_a6_proc_0
      + 0.000777681368 pi_d_a6_a5_proc_0 - 954.255703817208 pi_d_a5_a7_proc_1
      + 1627.301121687528 pi_d_a5_a7_proc_0 + 965.698878312472 pi_d_a7_a5_proc_1
      + 3547.255703817208 pi_d_a7_a5_proc_0 + 1.001593908702 pi_d_a5_a8_proc_1
      - 0.000000000000 pi_d_a8_a5_proc_1 + 2592.496452966298 pi_d_a5_a9_proc_0
      + 0.501953125000 pi_d_a9_a5_proc_0 + 1391.639175968644 pi_d_a6_a7_proc_1
      + 1381.199966972152 pi_d_a6_a7_proc_0
      + 1211.800033027848 pi_d_a7_a6_proc_1
      + 1201.360824031356 pi_d_a7_a6_proc_0
      + 2136.612840850421 pi_d_a6_a8_proc_1 + 456.384787559509 pi_d_a8_a6_proc_1
      + 0.314871590070 pi_d_a6_a9_proc_0 + 0.687500000000 pi_d_a9_a6_proc_0
      + 955.938136005792 pi_d_a7_a8_proc_1 - 944.496555419229 pi_d_a8_a7_proc_1
      + 955.328441502206 pi_d_a7_a9_proc_0 + 1627.229977911232 pi_d_a9_a7_proc_0
      + 0.998621940555 pi_y2_a0_proc_0 + 0.001378059445 pi_y2_a0_proc_1
      + pi_y2_a1_proc_0 + pi_y2_a2_proc_0 + 0.000000000000 pi_y2_a2_proc_1
      + 0.002472660622 pi_y2_a3_proc_0 + 0.997527339378 pi_y2_a3_proc_1
      + 0.499976705431 pi_y2_a4_proc_0 + 0.500023294569 pi_y2_a4_proc_1
      + 0.000000614934 pi_y2_a5_proc_0 + 0.999999385066 pi_y2_a5_proc_1
      + 0.999999085035 pi_y2_a6_proc_0 + 0.000000914965 pi_y2_a6_proc_1
      + 0.004028387572 pi_y2_a7_proc_0 + 0.995971612428 pi_y2_a7_proc_1
      + pi_y2_a8_proc_1 + pi_y2_a9_proc_0
Subject To
 c1: 0.001577287066 pi_nr_a0 + 0.003610108303 pi_nr_a1 + 0.001522070015 pi_nr_a2
     + 0.001239157373 pi_nr_a3 + 0.000938967136 pi_nr_a4
     + 0.001494768311 pi_nr_a5 + 0.000842459983 pi_nr_a6
     + 0.000991080278 pi_nr_a7 + 0.001035196687 pi_nr_a8
     + 0.001782531194 pi_nr_a9 + pi_p_a1_a0 + pi_p_a4_a9 + pi_p_a2_a0
     + pi_p_a1_a2 + pi_p_a3_a6 + pi_p_a4_a0 + pi_d_a1_a0_proc_0
     + 2592 pi_d_a0_a2_proc_1 + 2593 pi_d_a2_a0_proc_1 + pi_d_a2_a0_proc_0
     + 2592 pi_d_a0_a3_proc_1 + 2592 pi_d_a0_a3_proc_0 + pi_d_a3_a0_proc_1
     + pi_d_a3_a0_proc_0 + 2495 pi_d_a0_a4_proc_1 + 2495 pi_d_a0_a4_proc_0
     + 98 pi_d_a4_a0_proc_1 + 98 pi_d_a4_a0_proc_0 + 2592 pi_d_a0_a5_proc_1
     + 2592 pi_d_a0_a5_proc_0 + pi_d_a5_a0_proc_1 + pi_d_a5_a0_proc_0
     + 2592 pi_d_a0_a6_proc_1 + 2593 pi_d_a6_a0_proc_1 + pi_d_a6_a0_proc_0
     + 2590 pi_d_a0_a7_proc_1 + 2590 pi_d_a0_a7_proc_0 + 3 pi_d_a7_a0_proc_1
     + 3 pi_d_a7_a0_proc_0 + 2592 pi_d_a0_a8_proc_1 + pi_d_a8_a0_proc_1
     + pi_d_a9_a0_proc_0 + pi_d_a1_a2_proc_0 + 2593 pi_d_a1_a3_proc_0
     + pi_d_a1_a4_proc_0 + 2592 pi_d_a4_a1_proc_0 + 2593 pi_d_a1_a5_proc_0
     + pi_d_a1_a6_proc_0 + 2592 pi_d_a1_a7_proc_0 + pi_d_a7_a1_proc_0
     + pi_d_a1_a9_proc_0 + 2593 pi_d_a2_a3_proc_1 + 2593 pi_d_a2_a3_proc_0
     + 2592 pi_d_a2_a4_proc_1 + 2592 pi_d_a2_a4_proc_0 + pi_d_a4_a2_proc_1
     + pi_d_a4_a2_proc_0 + 2592 pi_d_a2_a5_proc_1 + 2592 pi_d_a2_a5_proc_0
     + pi_d_a5_a2_proc_1 + pi_d_a5_a2_proc_0 + 2593 pi_d_a2_a6_proc_1
     + pi_d_a2_a6_proc_0 + 2592 pi_d_a6_a2_proc_1 + 2593 pi_d_a7_a2_proc_1
     + 2593 pi_d_a7_a2_proc_0 + 2593 pi_d_a2_a8_proc_1 + pi_d_a9_a2_proc_0
     + 2592 pi_d_a3_a4_proc_0 + pi_d_a4_a3_proc_1 + 2593 pi_d_a4_a3_proc_0
     + 2592 pi_d_a3_a5_proc_0 + pi_d_a5_a3_proc_1 + 2593 pi_d_a5_a3_proc_0
     + 2593 pi_d_a3_a6_proc_1 + 2593 pi_d_a3_a6_proc_0 - pi_d_a3_a7_proc_1
     + 2591 pi_d_a3_a7_proc_0 + 2 pi_d_a7_a3_proc_1 + 2594 pi_d_a7_a3_proc_0
     + pi_d_a3_a8_proc_1 + 2592 pi_d_a3_a9_proc_0 + pi_d_a9_a3_proc_0
     + pi_d_a4_a5_proc_1 + 2593 pi_d_a4_a5_proc_0 + 2592 pi_d_a5_a4_proc_0
     + 2593 pi_d_a4_a6_proc_1 + 2593 pi_d_a4_a6_proc_0 + 2592 pi_d_a4_a7_proc_0
     + pi_d_a7_a4_proc_1 + 2593 pi_d_a7_a4_proc_0 + pi_d_a4_a8_proc_1
     + 2593 pi_d_a4_a9_proc_0 + 2593 pi_d_a5_a6_proc_1 + 2593 pi_d_a5_a6_proc_0
     - pi_d_a5_a7_proc_1 + 2591 pi_d_a5_a7_proc_0 + 2 pi_d_a7_a5_proc_1
     + 2594 pi_d_a7_a5_proc_0 + pi_d_a5_a8_proc_1 + 2592 pi_d_a5_a9_proc_0
     + pi_d_a9_a5_proc_0 + 2591 pi_d_a6_a7_proc_1 + 2591 pi_d_a6_a7_proc_0
     + 2 pi_d_a7_a6_proc_1 + 2 pi_d_a7_a6_proc_0 + 2592 pi_d_a6_a8_proc_1
     + pi_d_a8_a6_proc_1 + pi_d_a9_a6_proc_0 + 2 pi_d_a7_a8_proc_1
     - pi_d_a8_a7_proc_1 + pi_d_a7_a9_proc_0 + 2592 pi_d_a9_a7_proc_0
     + pi_y2_a0_proc_0 + pi_y2_a1_proc_0 + pi_y2_a2_proc_0 + pi_y2_a3_proc_1
     + pi_y2_a4_proc_1 + pi_y2_a5_proc_1 + pi_y2_a6_proc_0 + pi_y2_a7_proc_1
     + pi_y2_a8_proc_1 + pi_y2_a9_proc_0 = 0.000152765047
 c2: pi_nr_a0 + pi_nr_a1 + pi_nr_a2 + pi_nr_a3 + pi_nr_a4 + pi_nr_a5 + pi_nr_a6
     + pi_nr_a7 + pi_nr_a8 + pi_nr_a9 - pi_y1_a0 - pi_y1_a1 - pi_y1_a2
     - pi_y1_a3 - pi_y1_a4 - pi_y1_a5 - pi_y1_a6 - pi_y1_a7 - pi_y1_a8
     - pi_y1_a9 >= 1
 c3: - pi_p_a1_a0 + pi_p_a0_a8 - pi_p_a2_a0 + pi_p_a0_a3 - pi_p_a4_a0
     + pi_p_a0_a6 + pi_d_a0_a1_proc_0 - pi_d_a1_a0_proc_0 + pi_d_a0_a2_proc_1
     + pi_d_a0_a2_proc_0 - pi_d_a2_a0_proc_1 - pi_d_a2_a0_proc_0
     + pi_d_a0_a3_proc_1 + pi_d_a0_a3_proc_0 - pi_d_a3_a0_proc_1
     - pi_d_a3_a0_proc_0 + pi_d_a0_a4_proc_1 + pi_d_a0_a4_proc_0
     - pi_d_a4_a0_proc_1 - pi_d_a4_a0_proc_0 + pi_d_a0_a5_proc_1
     + pi_d_a0_a5_proc_0 - pi_d_a5_a0_proc_1 - pi_d_a5_a0_proc_0
     + pi_d_a0_a6_proc_1 + pi_d_a0_a6_proc_0 - pi_d_a6_a0_proc_1
     - pi_d_a6_a0_proc_0 + pi_d_a0_a7_proc_1 + pi_d_a0_a7_proc_0
     - pi_d_a7_a0_proc_1 - pi_d_a7_a0_proc_0 + pi_d_a0_a8_proc_1
     - pi_d_a8_a0_proc_1 + pi_d_a0_a9_proc_0 - pi_d_a9_a0_proc_0 >= 0
 c4: 634 pi_p_a0_a8 + 634 pi_p_a0_a3 + 634 pi_p_a0_a6 + 634 pi_d_a0_a1_proc_0
     + 634 pi_d_a0_a2_proc_0 + 634 pi_d_a0_a3_proc_0 + 634 pi_d_a0_a4_proc_0
     + 634 pi_d_a0_a5_proc_0 + 634 pi_d_a0_a6_proc_0 + 634 pi_d_a0_a7_proc_0
     + 634 pi_d_a0_a9_proc_0 + pi_y1_a0 + pi_y2_a0_proc_0 >= 0
 c5: 1185 pi_p_a0_a8 + 1185 pi_p_a0_a3 + 1185 pi_p_a0_a6
     + 1185 pi_d_a0_a2_proc_1 + 1185 pi_d_a0_a3_proc_1 + 1185 pi_d_a0_a4_proc_1
     + 1185 pi_d_a0_a5_proc_1 + 1185 pi_d_a0_a6_proc_1 + 1185 pi_d_a0_a7_proc_1
     + 1185 pi_d_a0_a8_proc_1 + pi_y1_a0 + pi_y2_a0_proc_1 >= 0
 c6: pi_p_a1_a0 - pi_p_a2_a1 - pi_p_a3_a1 + pi_p_a1_a2 - pi_d_a0_a1_proc_0
     + pi_d_a1_a0_proc_0 + pi_d_a1_a2_proc_0 - pi_d_a2_a1_proc_0
     + pi_d_a1_a3_proc_0 - pi_d_a3_a1_proc_0 + pi_d_a1_a4_proc_0
     - pi_d_a4_a1_proc_0 + pi_d_a1_a5_proc_0 - pi_d_a5_a1_proc_0
     + pi_d_a1_a6_proc_0 - pi_d_a6_a1_proc_0 + pi_d_a1_a7_proc_0
     - pi_d_a7_a1_proc_0 + pi_d_a1_a9_proc_0 - pi_d_a9_a1_proc_0 >= 0
 c7: 277 pi_p_a1_a0 + 277 pi_p_a1_a2 + 277 pi_d_a1_a0_proc_0
     + 277 pi_d_a1_a2_proc_0 + 277 pi_d_a1_a3_proc_0 + 277 pi_d_a1_a4_proc_0
     + 277 pi_d_a1_a5_proc_0 + 277 pi_d_a1_a6_proc_0 + 277 pi_d_a1_a7_proc_0
     + 277 pi_d_a1_a9_proc_0 + pi_y1_a1 + pi_y2_a1_proc_0 >= 0
 c8: pi_p_a2_a1 + pi_p_a2_a4 + pi_p_a2_a0 - pi_p_a1_a2 - pi_p_a5_a2
     - pi_d_a0_a2_proc_1 - pi_d_a0_a2_proc_0 + pi_d_a2_a0_proc_1
     + pi_d_a2_a0_proc_0 - pi_d_a1_a2_proc_0 + pi_d_a2_a1_proc_0
     + pi_d_a2_a3_proc_1 + pi_d_a2_a3_proc_0 - pi_d_a3_a2_proc_1
     - pi_d_a3_a2_proc_0 + pi_d_a2_a4_proc_1 + pi_d_a2_a4_proc_0
     - pi_d_a4_a2_proc_1 - pi_d_a4_a2_proc_0 + pi_d_a2_a5_proc_1
     + pi_d_a2_a5_proc_0 - pi_d_a5_a2_proc_1 - pi_d_a5_a2_proc_0
     + pi_d_a2_a6_proc_1 + pi_d_a2_a6_proc_0 - pi_d_a6_a2_proc_1
     - pi_d_a6_a2_proc_0 + pi_d_a2_a7_proc_1 + pi_d_a2_a7_proc_0
     - pi_d_a7_a2_proc_1 - pi_d_a7_a2_proc_0 + pi_d_a2_a8_proc_1
     - pi_d_a8_a2_proc_1 + pi_d_a2_a9_proc_0 - pi_d_a9_a2_proc_0 >= 0
 c9: 657 pi_p_a2_a1 + 657 pi_p_a2_a4 + 657 pi_p_a2_a0 + 657 pi_d_a2_a0_proc_0
     + 657 pi_d_a2_a1_proc_0 + 657 pi_d_a2_a3_proc_0 + 657 pi_d_a2_a4_proc_0
     + 657 pi_d_a2_a5_proc_0 + 657 pi_d_a2_a6_proc_0 + 657 pi_d_a2_a7_proc_0
     + 657 pi_d_a2_a9_proc_0 + pi_y1_a2 + pi_y2_a2_proc_0 >= 0
 c10: 1296 pi_p_a2_a1 + 1296 pi_p_a2_a4 + 1296 pi_p_a2_a0
      + 1296 pi_d_a2_a0_proc_1 + 1296 pi_d_a2_a3_proc_1 + 1296 pi_d_a2_a4_proc_1
      + 1296 pi_d_a2_a5_proc_1 + 1296 pi_d_a2_a6_proc_1 + 1296 pi_d_a2_a7_proc_1
      + 1296 pi_d_a2_a8_proc_1 + pi_y1_a2 + pi_y2_a2_proc_1 >= 0
 c11: pi_p_a3_a1 + pi_p_a3_a5 - pi_p_a6_a3 + pi_p_a3_a6 - pi_p_a0_a3
      - pi_d_a0_a3_proc_1 - pi_d_a0_a3_proc_0 + pi_d_a3_a0_proc_1
      + pi_d_a3_a0_proc_0 - pi_d_a1_a3_proc_0 + pi_d_a3_a1_proc_0
      - pi_d_a2_a3_proc_1 - pi_d_a2_a3_proc_0 + pi_d_a3_a2_proc_1
      + pi_d_a3_a2_proc_0 + pi_d_a3_a4_proc_1 + pi_d_a3_a4_proc_0
      - pi_d_a4_a3_proc_1 - pi_d_a4_a3_proc_0 + pi_d_a3_a5_proc_1
      + pi_d_a3_a5_proc_0 - pi_d_a5_a3_proc_1 - pi_d_a5_a3_proc_0
      + pi_d_a3_a6_proc_1 + pi_d_a3_a6_proc_0 - pi_d_a6_a3_proc_1
      - pi_d_a6_a3_proc_0 + pi_d_a3_a7_proc_1 + pi_d_a3_a7_proc_0
      - pi_d_a7_a3_proc_1 - pi_d_a7_a3_proc_0 + pi_d_a3_a8_proc_1
      - pi_d_a8_a3_proc_1 + pi_d_a3_a9_proc_0 - pi_d_a9_a3_proc_0 >= 0
 c12: 1071 pi_p_a3_a1 + 1071 pi_p_a3_a5 + 1071 pi_p_a3_a6
      + 1071 pi_d_a3_a0_proc_0 + 1071 pi_d_a3_a1_proc_0 + 1071 pi_d_a3_a2_proc_0
      + 1071 pi_d_a3_a4_proc_0 + 1071 pi_d_a3_a5_proc_0 + 1071 pi_d_a3_a6_proc_0
      + 1071 pi_d_a3_a7_proc_0 + 1071 pi_d_a3_a9_proc_0 + pi_y1_a3
      + pi_y2_a3_proc_0 >= 0
 c13: 807 pi_p_a3_a1 + 807 pi_p_a3_a5 + 807 pi_p_a3_a6 + 807 pi_d_a3_a0_proc_1
      + 807 pi_d_a3_a2_proc_1 + 807 pi_d_a3_a4_proc_1 + 807 pi_d_a3_a5_proc_1
      + 807 pi_d_a3_a6_proc_1 + 807 pi_d_a3_a7_proc_1 + 807 pi_d_a3_a8_proc_1
      + pi_y1_a3 + pi_y2_a3_proc_1 >= 0
 c14: - pi_p_a2_a4 + pi_p_a4_a7 - pi_p_a9_a4 + pi_p_a4_a9 + pi_p_a4_a0
      - pi_d_a0_a4_proc_1 - pi_d_a0_a4_proc_0 + pi_d_a4_a0_proc_1
      + pi_d_a4_a0_proc_0 - pi_d_a1_a4_proc_0 + pi_d_a4_a1_proc_0
      - pi_d_a2_a4_proc_1 - pi_d_a2_a4_proc_0 + pi_d_a4_a2_proc_1
      + pi_d_a4_a2_proc_0 - pi_d_a3_a4_proc_1 - pi_d_a3_a4_proc_0
      + pi_d_a4_a3_proc_1 + pi_d_a4_a3_proc_0 + pi_d_a4_a5_proc_1
      + pi_d_a4_a5_proc_0 - pi_d_a5_a4_proc_1 - pi_d_a5_a4_proc_0
      + pi_d_a4_a6_proc_1 + pi_d_a4_a6_proc_0 - pi_d_a6_a4_proc_1
      - pi_d_a6_a4_proc_0 + pi_d_a4_a7_proc_1 + pi_d_a4_a7_proc_0
      - pi_d_a7_a4_proc_1 - pi_d_a7_a4_proc_0 + pi_d_a4_a8_proc_1
      - pi_d_a8_a4_proc_1 + pi_d_a4_a9_proc_0 - pi_d_a9_a4_proc_0 >= 0
 c15: 928 pi_p_a4_a7 + 928 pi_p_a4_a9 + 928 pi_p_a4_a0 + 928 pi_d_a4_a0_proc_0
      + 928 pi_d_a4_a1_proc_0 + 928 pi_d_a4_a2_proc_0 + 928 pi_d_a4_a3_proc_0
      + 928 pi_d_a4_a5_proc_0 + 928 pi_d_a4_a6_proc_0 + 928 pi_d_a4_a7_proc_0
      + 928 pi_d_a4_a9_proc_0 + pi_y1_a4 + pi_y2_a4_proc_0 >= 0
 c16: 1065 pi_p_a4_a7 + 1065 pi_p_a4_a9 + 1065 pi_p_a4_a0
      + 1065 pi_d_a4_a0_proc_1 + 1065 pi_d_a4_a2_proc_1 + 1065 pi_d_a4_a3_proc_1
      + 1065 pi_d_a4_a5_proc_1 + 1065 pi_d_a4_a6_proc_1 + 1065 pi_d_a4_a7_proc_1
      + 1065 pi_d_a4_a8_proc_1 + pi_y1_a4 + pi_y2_a4_proc_1 >= 0
 c17: - pi_p_a3_a5 + pi_p_a5_a2 - pi_d_a0_a5_proc_1 - pi_d_a0_a5_proc_0
      + pi_d_a5_a0_proc_1 + pi_d_a5_a0_proc_0 - pi_d_a1_a5_proc_0
      + pi_d_a5_a1_proc_0 - pi_d_a2_a5_proc_1 - pi_d_a2_a5_proc_0
      + pi_d_a5_a2_proc_1 + pi_d_a5_a2_proc_0 - pi_d_a3_a5_proc_1
      - pi_d_a3_a5_proc_0 + pi_d_a5_a3_proc_1 + pi_d_a5_a3_proc_0
      - pi_d_a4_a5_proc_1 - pi_d_a4_a5_proc_0 + pi_d_a5_a4_proc_1
      + pi_d_a5_a4_proc_0 + pi_d_a5_a6_proc_1 + pi_d_a5_a6_proc_0
      - pi_d_a6_a5_proc_1 - pi_d_a6_a5_proc_0 + pi_d_a5_a7_proc_1
      + pi_d_a5_a7_proc_0 - pi_d_a7_a5_proc_1 - pi_d_a7_a5_proc_0
      + pi_d_a5_a8_proc_1 - pi_d_a8_a5_proc_1 + pi_d_a5_a9_proc_0
      - pi_d_a9_a5_proc_0 >= 0
 c18: 1121 pi_p_a5_a2 + 1121 pi_d_a5_a0_proc_0 + 1121 pi_d_a5_a1_proc_0
      + 1121 pi_d_a5_a2_proc_0 + 1121 pi_d_a5_a3_proc_0 + 1121 pi_d_a5_a4_proc_0
      + 1121 pi_d_a5_a6_proc_0 + 1121 pi_d_a5_a7_proc_0 + 1121 pi_d_a5_a9_proc_0
      + pi_y1_a5 + pi_y2_a5_proc_0 >= 0
 c19: 669 pi_p_a5_a2 + 669 pi_d_a5_a0_proc_1 + 669 pi_d_a5_a2_proc_1
      + 669 pi_d_a5_a3_proc_1 + 669 pi_d_a5_a4_proc_1 + 669 pi_d_a5_a6_proc_1
      + 669 pi_d_a5_a7_proc_1 + 669 pi_d_a5_a8_proc_1 + pi_y1_a5
      + pi_y2_a5_proc_1 >= 0
 c20: pi_p_a6_a3 - pi_p_a3_a6 - pi_p_a0_a6 - pi_p_a8_a6 - pi_d_a0_a6_proc_1
      - pi_d_a0_a6_proc_0 + pi_d_a6_a0_proc_1 + pi_d_a6_a0_proc_0
      - pi_d_a1_a6_proc_0 + pi_d_a6_a1_proc_0 - pi_d_a2_a6_proc_1
      - pi_d_a2_a6_proc_0 + pi_d_a6_a2_proc_1 + pi_d_a6_a2_proc_0
      - pi_d_a3_a6_proc_1 - pi_d_a3_a6_proc_0 + pi_d_a6_a3_proc_1
      + pi_d_a6_a3_proc_0 - pi_d_a4_a6_proc_1 - pi_d_a4_a6_proc_0
      + pi_d_a6_a4_proc_1 + pi_d_a6_a4_proc_0 - pi_d_a5_a6_proc_1
      - pi_d_a5_a6_proc_0 + pi_d_a6_a5_proc_1 + pi_d_a6_a5_proc_0
      + pi_d_a6_a7_proc_1 + pi_d_a6_a7_proc_0 - pi_d_a7_a6_proc_1
      - pi_d_a7_a6_proc_0 + pi_d_a6_a8_proc_1 - pi_d_a8_a6_proc_1
      + pi_d_a6_a9_proc_0 - pi_d_a9_a6_proc_0 >= 0
 c21: 1187 pi_p_a6_a3 + 1187 pi_d_a6_a0_proc_0 + 1187 pi_d_a6_a1_proc_0
      + 1187 pi_d_a6_a2_proc_0 + 1187 pi_d_a6_a3_proc_0 + 1187 pi_d_a6_a4_proc_0
      + 1187 pi_d_a6_a5_proc_0 + 1187 pi_d_a6_a7_proc_0 + 1187 pi_d_a6_a9_proc_0
      + pi_y1_a6 + pi_y2_a6_proc_0 >= 0
 c22: 435 pi_p_a6_a3 + 435 pi_d_a6_a0_proc_1 + 435 pi_d_a6_a2_proc_1
      + 435 pi_d_a6_a3_proc_1 + 435 pi_d_a6_a4_proc_1 + 435 pi_d_a6_a5_proc_1
      + 435 pi_d_a6_a7_proc_1 + 435 pi_d_a6_a8_proc_1 + pi_y1_a6
      + pi_y2_a6_proc_1 >= 0
 c23: - pi_p_a4_a7 - pi_d_a0_a7_proc_1 - pi_d_a0_a7_proc_0 + pi_d_a7_a0_proc_1
      + pi_d_a7_a0_proc_0 - pi_d_a1_a7_proc_0 + pi_d_a7_a1_proc_0
      - pi_d_a2_a7_proc_1 - pi_d_a2_a7_proc_0 + pi_d_a7_a2_proc_1
      + pi_d_a7_a2_proc_0 - pi_d_a3_a7_proc_1 - pi_d_a3_a7_proc_0
      + pi_d_a7_a3_proc_1 + pi_d_a7_a3_proc_0 - pi_d_a4_a7_proc_1
      - pi_d_a4_a7_proc_0 + pi_d_a7_a4_proc_1 + pi_d_a7_a4_proc_0
      - pi_d_a5_a7_proc_1 - pi_d_a5_a7_proc_0 + pi_d_a7_a5_proc_1
      + pi_d_a7_a5_proc_0 - pi_d_a6_a7_proc_1 - pi_d_a6_a7_proc_0
      + pi_d_a7_a6_proc_1 + pi_d_a7_a6_proc_0 + pi_d_a7_a8_proc_1
      - pi_d_a8_a7_proc_1 + pi_d_a7_a9_proc_0 - pi_d_a9_a7_proc_0 >= 0
 c24: 1120 pi_d_a7_a0_proc_0 + 1120 pi_d_a7_a1_proc_0 + 1120 pi_d_a7_a2_proc_0
      + 1120 pi_d_a7_a3_proc_0 + 1120 pi_d_a7_a4_proc_0 + 1120 pi_d_a7_a5_proc_0
      + 1120 pi_d_a7_a6_proc_0 + 1120 pi_d_a7_a9_proc_0 + pi_y1_a7
      + pi_y2_a7_proc_0 >= 0
 c25: 1009 pi_d_a7_a0_proc_1 + 1009 pi_d_a7_a2_proc_1 + 1009 pi_d_a7_a3_proc_1
      + 1009 pi_d_a7_a4_proc_1 + 1009 pi_d_a7_a5_proc_1 + 1009 pi_d_a7_a6_proc_1
      + 1009 pi_d_a7_a8_proc_1 + pi_y1_a7 + pi_y2_a7_proc_1 >= 0
 c26: - pi_p_a0_a8 + pi_p_a8_a6 - pi_d_a0_a8_proc_1 + pi_d_a8_a0_proc_1
      - pi_d_a2_a8_proc_1 + pi_d_a8_a2_proc_1 - pi_d_a3_a8_proc_1
      + pi_d_a8_a3_proc_1 - pi_d_a4_a8_proc_1 + pi_d_a8_a4_proc_1
      - pi_d_a5_a8_proc_1 + pi_d_a8_a5_proc_1 - pi_d_a6_a8_proc_1
      + pi_d_a8_a6_proc_1 - pi_d_a7_a8_proc_1 + pi_d_a8_a7_proc_1 >= 0
 c27: 966 pi_p_a8_a6 + 966 pi_d_a8_a0_proc_1 + 966 pi_d_a8_a2_proc_1
      + 966 pi_d_a8_a3_proc_1 + 966 pi_d_a8_a4_proc_1 + 966 pi_d_a8_a5_proc_1
      + 966 pi_d_a8_a6_proc_1 + 966 pi_d_a8_a7_proc_1 + pi_y1_a8
      + pi_y2_a8_proc_1 >= 0
 c28: pi_p_a9_a4 - pi_p_a4_a9 - pi_d_a0_a9_proc_0 + pi_d_a9_a0_proc_0
      - pi_d_a1_a9_proc_0 + pi_d_a9_a1_proc_0 - pi_d_a2_a9_proc_0
      + pi_d_a9_a2_proc_0 - pi_d_a3_a9_proc_0 + pi_d_a9_a3_proc_0
      - pi_d_a4_a9_proc_0 + pi_d_a9_a4_proc_0 - pi_d_a5_a9_proc_0
      + pi_d_a9_a5_proc_0 - pi_d_a6_a9_proc_0 + pi_d_a9_a6_proc_0
      - pi_d_a7_a9_proc_0 + pi_d_a9_a7_proc_0 >= 0
 c29: 561 pi_p_a9_a4 + 561 pi_d_a9_a0_proc_0 + 561 pi_d_a9_a1_proc_0
      + 561 pi_d_a9_a2_proc_0 + 561 pi_d_a9_a3_proc_0 + 561 pi_d_a9_a4_proc_0
      + 561 pi_d_a9_a5_proc_0 + 561 pi_d_a9_a6_proc_0 + 561 pi_d_a9_a7_proc_0
      + pi_y1_a9 + pi_y2_a9_proc_0 >= 0

Bounds
       pi_y1_a0 Free
       pi_y1_a1 Free
       pi_y1_a2 Free
       pi_y1_a3 Free
       pi_y1_a4 Free
       pi_y1_a5 Free
       pi_y1_a6 Free
       pi_y1_a7 Free
       pi_y1_a8 Free
       pi_y1_a9 Free
End
