benchmark/results/graph__10-1000-0.10-02_2/graph__10-1000-0.10-02_2_Quinton_Benders_aux.txt
solution for: Quinton Benders_auxiliary_sub
objective: 0.0106932
status: OPTIMAL_SOLUTION(2)
pi_p_a3_a5=0.000
pi_p_a6_a3=0.000
pi_p_a0_a8=0.000
pi_p_a5_a2=0.000
pi_p_a4_a0=0.000
pi_p_a8_a6=0.000
pi_d_a2_a9_proc_0=0.000
pi_d_a9_a4_proc_0=0.000
pi_y1_a0=-0.097
pi_y1_a2=-0.100
pi_y1_a3=-0.123
pi_y1_a4=-0.163
pi_y1_a5=-0.102
pi_y1_a6=-0.181
pi_y1_a8=-0.148
pi_y1_a9=-0.086
pi_y2_a2_proc_1=0.100
pi_y2_a4_proc_0=0.021
pi_y2_a6_proc_1=0.115
